32      4       
10      10      10      10      
0       0       0       0       0       2       2       4       
10      1       0       1       1       1       3       
2       6       0       1       6       3       5       14      22      
3       2       1       4       0       3       7       10      22      
9       6       4       6       0       1       6       
6       6       4       6       0       1       7       
7       0       5       3       3       1       8       
6       4       2       3       0       3       9       15      31      
9       3       4       4       0       1       11      
4       1       0       6       5       3       14      15      30      
3       2       2       0       3       1       12      
10      0       4       4       8       2       13      18      
5       5       0       4       5       2       16      30      
5       5       2       5       0       2       16      31      
6       0       5       2       3       1       16      
9       4       0       6       4       4       17      21      28      29      
6       4       8       3       0       1       19      
4       4       0       4       5       1       19      
7       5       6       3       0       1       20      
1       5       4       0       9       2       23      27      
10      0       4       5       2       2       23      27      
9       4       6       0       3       2       23      30      
6       0       4       1       3       1       24      
3       6       1       0       5       1       25      
10      2       5       0       3       1       26      
10      2       2       5       0       1       32      
2       6       0       6       2       1       32      
4       3       8       5       0       1       32      
4       0       5       5       5       1       32      
1       4       3       0       1       1       32      
9       6       3       0       4       1       32      
0       0       0       0       0       0       
